5	20
14 50	2 45	8 53	5 47	13 48	1 54	16 54	0 53	12 56	15 54	10 52	3 45	19 42	17 53	7 41	18 47	6 57	4 47	9 45	11 47
9 47	14 45	7 55	13 43	10 54	12 47	19 42	2 46	3 51	6 39	17 47	16 55	0 50	8 50	5 44	15 47	1 56	4 43	11 56	18 53
19 53	15 56	16 42	6 53	14 54	11 45	13 56	12 59	0 51	5 50	10 41	2 50	17 40	8 50	3 51	9 51	18 53	7 61	4 50	1 42
2 56	1 46	0 49	15 54	13 43	7 53	3 48	14 50	6 47	11 46	16 51	18 55	5 43	9 45	8 60	12 42	10 47	4 59	19 47	17 45
2 58	9 51	5 47	17 48	11 44	14 46	4 46	3 51	0 60	16 50	6 45	12 45	18 52	19 52	8 49	7 46	10 50	13 52	1 52	15 58
